(set-logic QF_LIA)
(set-info :ran/ran12.smt2)
(set-info :smt-lib-version 2.0)
(declare-fun x0 () Int)
(declare-fun x1 () Int)
(declare-fun x2 () Int)
(declare-fun x3 () Int)
(declare-fun x4 () Int)
(declare-fun x5 () Int)
(declare-fun x6 () Int)
(declare-fun x7 () Int)
(declare-fun x8 () Int)
(declare-fun x9 () Int)
(declare-fun x10 () Int)
(declare-fun x11 () Int)
(define-fun ie0 () Bool (<= (+ (* 99 x5) (* (- 74) x7) ) (- 90)))
(define-fun ie1 () Bool (<= (+ (* 42 x11) (* 42 x5) (* (- 81) x6) ) 90))
(define-fun ie2 () Bool (<= (+ (* 0 x2) (* 19 x2) (* 67 x7) (* 86 x0) ) (- 29)))
(define-fun ie3 () Bool (<= (+ (* (- 64) x3) (* (- 16) x10) (* (- 5) x11) (* (- 9) x2) ) (- 59)))
(define-fun ie4 () Bool (<= (+ (* (- 55) x7) (* 55 x8) (* (- 37) x1) (* 13 x2) ) (- 52)))
(define-fun ie5 () Bool (<= (+ (* (- 21) x4) (* 2 x6) ) 70))
(define-fun ie6 () Bool (<= (+ (* (- 7) x1) (* 34 x4) (* 97 x10) ) 79))
(define-fun ie7 () Bool (<= (+ (* (- 100) x6) (* (- 64) x3) ) 20))
(define-fun ie8 () Bool (<= (+ (* 61 x1) (* (- 67) x4) (* 53 x4) (* 65 x3) ) 30))
(define-fun ie9 () Bool (<= (+ (* (- 25) x1) (* 13 x9) (* 11 x0) (* 50 x8) ) 93))
(define-fun ie10 () Bool (<= (+ (* 20 x2) (* 59 x7) (* (- 29) x11) ) 25))
(define-fun ie11 () Bool (<= (+ (* (- 97) x5) (* (- 59) x0) (* 62 x2) (* 84 x8) ) 22))
(assert ie0)
(assert ie1)
(assert ie2)
(assert ie3)
(assert ie4)
(assert ie5)
(assert ie6)
(assert ie7)
(assert ie8)
(assert ie9)
(assert ie10)
(assert ie11)
(check-sat)
(exit)
